
Gurobi 5.1.0 (mac64) logging started Fri Aug 23 13:55:13 2013


Gurobi 5.1.0 (mac64) logging started Fri Aug 23 14:49:15 2013


Gurobi 5.1.0 (mac64) logging started Fri Aug 23 14:53:12 2013


Gurobi 5.1.0 (mac64) logging started Fri Aug 23 16:27:05 2013


Gurobi 5.1.0 (mac64) logging started Fri Aug 23 16:28:36 2013


Gurobi 5.1.0 (mac64) logging started Fri Aug 23 16:32:20 2013


Gurobi 5.1.0 (mac64) logging started Fri Aug 23 16:37:34 2013


Gurobi 5.1.0 (mac64) logging started Fri Aug 23 16:39:50 2013


Gurobi 5.1.0 (mac64) logging started Fri Aug 23 16:41:56 2013


Gurobi 5.1.0 (mac64) logging started Fri Aug 23 16:46:15 2013

